; benchmark generated from python API
(set-info :status unknown)
(declare-datatypes ((IntState 0)) (((Mk1 (val1 Int)) (Mk2 (val2 Int)))))
 (declare-fun |c_hanoi_#t~ret0| () Int)
(declare-fun |c_hanoi_#in~n| () Int)
(declare-fun c_hanoi_~n () Int)
(assert
 (let (($x85 (exists ((v_nnf_16_st IntState) (val!66 Int) )(exists ((v_nnf_15_st IntState) (val!67 Int) )(let (($x5 (<= |c_hanoi_#in~n| 4)))
 (let (($x128 (and $x5 (<= (+ (* 2 (val2 v_nnf_16_st)) 1) (val2 v_nnf_15_st)) (<= 1 (val2 v_nnf_16_st)) (<= (+ (* 2 (val2 v_nnf_15_st)) 1) |c_hanoi_#t~ret0|))))
 (let (($x52 (not (= v_nnf_15_st (Mk1 val!67)))))
 (let (($x123 (not (= v_nnf_16_st (Mk1 val!66)))))
 (and $x123 $x52 $x128))))))
 )
 ))
 (let (($x77 (<= |c_hanoi_#in~n| c_hanoi_~n)))
 (let (($x44 (exists ((v_nnf_14 Int) )(exists ((v_nnf_13 Int) )(let (($x77 (<= |c_hanoi_#in~n| c_hanoi_~n)))
 (let (($x87 (<= c_hanoi_~n 4)))
 (and $x87 (<= (+ (* 2 v_nnf_14) 1) |c_hanoi_#t~ret0|) (<= 1 v_nnf_13) (<= (+ (* 2 v_nnf_13) 1) v_nnf_14) $x77))))
 )
 ))
 (and $x44 (not (and $x77 $x85)))))))
(check-sat)
